row=5;
column=5;
left=[5, 15, 0, 0, 12];
right=[11, 5, 9, 0, 6];
top=[0, 8, 9, 10, 7];
bottom=[12, 9, 0, 5, 0];
Board=[|5,0,0,0,2|1,0,0,0,5|0,0,5,0,0|0,0,0,0,0|3,0,2,0,0|]